
  22   10
  10   10   10   10   10   10   10   10   10   10

   0   0   0   0   0   0   0   0   0   0   0  12 2 3 4 5 6 7 8 9 10 11 20 21 
  10  10  10  10  10  10  10  10  10  10  10   5 19 18 14 13 12 
   9  10  10  10  10  10  10  10  10  10  10   4 17 16 14 12 
   2  10  10  10  10  10  10  10  10  10  10   4 15 14 13 12 
   9  10  10  10  10  10  10  10  10  10  10   3 16 13 12 
   2  10  10  10  10  10  10  10  10  10  10   2 15 12 
  10  10  10  10  10  10  10  10  10  10  10   2 14 12 
   8  10  10  10  10  10  10  10  10  10  10   1 15 
   2  10  10  10  10  10  10  10  10  10  10   1 13 
  10  10  10  10  10  10  10  10  10  10  10   1 12 
  10  10  10  10  10  10  10  10  10  10  10   1 12 
   8  10  10  10  10  10  10  10  10  10  10   1 22
   5  10  10  10  10  10  10  10  10  10  10   1 22
   9  10  10  10  10  10  10  10  10  10  10   1 22
   6  10  10  10  10  10  10  10  10  10  10   1 22
   5  10  10  10  10  10  10  10  10  10  10   1 22
  10  10  10  10  10  10  10  10  10  10  10   1 22
   9  10  10  10  10  10  10  10  10  10  10   1 22
  10  10  10  10  10  10  10  10  10  10  10   1 22
   1  10  10  10  10  10  10  10  10  10  10   1 22
   9  10  10  10  10  10  10  10  10  10  10   1 22
   0   0   0   0   0   0   0   0   0   0   0   0 
